c description: Graph pigeonhole principle formula on fast_gnp_random_graph(10,20,0.9)
c generator: CNFgen (0.9.0)
c copyright: (C) 2012-2020 Massimo Lauria <massimo.lauria@uniroma1.it>
c url: https://massimolauria.net/cnfgen
c
p cnf 186 788
1 2 3 4 5 6 7 8 9 10 11 12 13 14 15 16 17 18 19 0
20 21 22 23 24 25 26 27 28 29 30 31 32 33 34 35 36 0
37 38 39 40 41 42 43 44 45 46 47 48 49 50 51 52 53 54 0
55 56 57 58 59 60 61 62 63 64 65 66 67 68 69 70 71 72 73 0
74 75 76 77 78 79 80 81 82 83 84 85 86 87 88 89 0
90 91 92 93 94 95 96 97 98 99 100 101 102 103 104 105 106 107 108 109 0
110 111 112 113 114 115 116 117 118 119 120 121 122 123 124 125 126 127 128 129 0
130 131 132 133 134 135 136 137 138 139 140 141 142 143 144 145 146 147 148 0
149 150 151 152 153 154 155 156 157 158 159 160 161 162 163 164 165 166 0
167 168 169 170 171 172 173 174 175 176 177 178 179 180 181 182 183 184 185 186 0
-1 -37 0
-1 -55 0
-1 -90 0
-1 -110 0
-1 -130 0
-1 -149 0
-1 -167 0
-37 -55 0
-37 -90 0
-37 -110 0
-37 -130 0
-37 -149 0
-37 -167 0
-55 -90 0
-55 -110 0
-55 -130 0
-55 -149 0
-55 -167 0
-90 -110 0
-90 -130 0
-90 -149 0
-90 -167 0
-110 -130 0
-110 -149 0
-110 -167 0
-130 -149 0
-130 -167 0
-149 -167 0
-2 -20 0
-2 -38 0
-2 -74 0
-2 -91 0
-2 -111 0
-2 -131 0
-2 -150 0
-2 -168 0
-20 -38 0
-20 -74 0
-20 -91 0
-20 -111 0
-20 -131 0
-20 -150 0
-20 -168 0
-38 -74 0
-38 -91 0
-38 -111 0
-38 -131 0
-38 -150 0
-38 -168 0
-74 -91 0
-74 -111 0
-74 -131 0
-74 -150 0
-74 -168 0
-91 -111 0
-91 -131 0
-91 -150 0
-91 -168 0
-111 -131 0
-111 -150 0
-111 -168 0
-131 -150 0
-131 -168 0
-150 -168 0
-3 -21 0
-3 -39 0
-3 -56 0
-3 -75 0
-3 -92 0
-3 -112 0
-3 -132 0
-3 -151 0
-3 -169 0
-21 -39 0
-21 -56 0
-21 -75 0
-21 -92 0
-21 -112 0
-21 -132 0
-21 -151 0
-21 -169 0
-39 -56 0
-39 -75 0
-39 -92 0
-39 -112 0
-39 -132 0
-39 -151 0
-39 -169 0
-56 -75 0
-56 -92 0
-56 -112 0
-56 -132 0
-56 -151 0
-56 -169 0
-75 -92 0
-75 -112 0
-75 -132 0
-75 -151 0
-75 -169 0
-92 -112 0
-92 -132 0
-92 -151 0
-92 -169 0
-112 -132 0
-112 -151 0
-112 -169 0
-132 -151 0
-132 -169 0
-151 -169 0
-4 -22 0
-4 -40 0
-4 -57 0
-4 -76 0
-4 -93 0
-4 -113 0
-4 -133 0
-4 -152 0
-4 -170 0
-22 -40 0
-22 -57 0
-22 -76 0
-22 -93 0
-22 -113 0
-22 -133 0
-22 -152 0
-22 -170 0
-40 -57 0
-40 -76 0
-40 -93 0
-40 -113 0
-40 -133 0
-40 -152 0
-40 -170 0
-57 -76 0
-57 -93 0
-57 -113 0
-57 -133 0
-57 -152 0
-57 -170 0
-76 -93 0
-76 -113 0
-76 -133 0
-76 -152 0
-76 -170 0
-93 -113 0
-93 -133 0
-93 -152 0
-93 -170 0
-113 -133 0
-113 -152 0
-113 -170 0
-133 -152 0
-133 -170 0
-152 -170 0
-5 -23 0
-5 -41 0
-5 -58 0
-5 -77 0
-5 -94 0
-5 -114 0
-5 -134 0
-5 -153 0
-5 -171 0
-23 -41 0
-23 -58 0
-23 -77 0
-23 -94 0
-23 -114 0
-23 -134 0
-23 -153 0
-23 -171 0
-41 -58 0
-41 -77 0
-41 -94 0
-41 -114 0
-41 -134 0
-41 -153 0
-41 -171 0
-58 -77 0
-58 -94 0
-58 -114 0
-58 -134 0
-58 -153 0
-58 -171 0
-77 -94 0
-77 -114 0
-77 -134 0
-77 -153 0
-77 -171 0
-94 -114 0
-94 -134 0
-94 -153 0
-94 -171 0
-114 -134 0
-114 -153 0
-114 -171 0
-134 -153 0
-134 -171 0
-153 -171 0
-6 -42 0
-6 -59 0
-6 -78 0
-6 -95 0
-6 -115 0
-6 -172 0
-42 -59 0
-42 -78 0
-42 -95 0
-42 -115 0
-42 -172 0
-59 -78 0
-59 -95 0
-59 -115 0
-59 -172 0
-78 -95 0
-78 -115 0
-78 -172 0
-95 -115 0
-95 -172 0
-115 -172 0
-7 -24 0
-7 -43 0
-7 -60 0
-7 -79 0
-7 -96 0
-7 -116 0
-7 -135 0
-7 -154 0
-7 -173 0
-24 -43 0
-24 -60 0
-24 -79 0
-24 -96 0
-24 -116 0
-24 -135 0
-24 -154 0
-24 -173 0
-43 -60 0
-43 -79 0
-43 -96 0
-43 -116 0
-43 -135 0
-43 -154 0
-43 -173 0
-60 -79 0
-60 -96 0
-60 -116 0
-60 -135 0
-60 -154 0
-60 -173 0
-79 -96 0
-79 -116 0
-79 -135 0
-79 -154 0
-79 -173 0
-96 -116 0
-96 -135 0
-96 -154 0
-96 -173 0
-116 -135 0
-116 -154 0
-116 -173 0
-135 -154 0
-135 -173 0
-154 -173 0
-8 -25 0
-8 -44 0
-8 -61 0
-8 -80 0
-8 -97 0
-8 -117 0
-8 -136 0
-8 -155 0
-8 -174 0
-25 -44 0
-25 -61 0
-25 -80 0
-25 -97 0
-25 -117 0
-25 -136 0
-25 -155 0
-25 -174 0
-44 -61 0
-44 -80 0
-44 -97 0
-44 -117 0
-44 -136 0
-44 -155 0
-44 -174 0
-61 -80 0
-61 -97 0
-61 -117 0
-61 -136 0
-61 -155 0
-61 -174 0
-80 -97 0
-80 -117 0
-80 -136 0
-80 -155 0
-80 -174 0
-97 -117 0
-97 -136 0
-97 -155 0
-97 -174 0
-117 -136 0
-117 -155 0
-117 -174 0
-136 -155 0
-136 -174 0
-155 -174 0
-9 -26 0
-9 -45 0
-9 -62 0
-9 -81 0
-9 -98 0
-9 -118 0
-9 -137 0
-9 -156 0
-9 -175 0
-26 -45 0
-26 -62 0
-26 -81 0
-26 -98 0
-26 -118 0
-26 -137 0
-26 -156 0
-26 -175 0
-45 -62 0
-45 -81 0
-45 -98 0
-45 -118 0
-45 -137 0
-45 -156 0
-45 -175 0
-62 -81 0
-62 -98 0
-62 -118 0
-62 -137 0
-62 -156 0
-62 -175 0
-81 -98 0
-81 -118 0
-81 -137 0
-81 -156 0
-81 -175 0
-98 -118 0
-98 -137 0
-98 -156 0
-98 -175 0
-118 -137 0
-118 -156 0
-118 -175 0
-137 -156 0
-137 -175 0
-156 -175 0
-10 -27 0
-10 -63 0
-10 -82 0
-10 -99 0
-10 -119 0
-10 -138 0
-10 -157 0
-10 -176 0
-27 -63 0
-27 -82 0
-27 -99 0
-27 -119 0
-27 -138 0
-27 -157 0
-27 -176 0
-63 -82 0
-63 -99 0
-63 -119 0
-63 -138 0
-63 -157 0
-63 -176 0
-82 -99 0
-82 -119 0
-82 -138 0
-82 -157 0
-82 -176 0
-99 -119 0
-99 -138 0
-99 -157 0
-99 -176 0
-119 -138 0
-119 -157 0
-119 -176 0
-138 -157 0
-138 -176 0
-157 -176 0
-11 -28 0
-11 -46 0
-11 -64 0
-11 -100 0
-11 -120 0
-11 -139 0
-11 -158 0
-11 -177 0
-28 -46 0
-28 -64 0
-28 -100 0
-28 -120 0
-28 -139 0
-28 -158 0
-28 -177 0
-46 -64 0
-46 -100 0
-46 -120 0
-46 -139 0
-46 -158 0
-46 -177 0
-64 -100 0
-64 -120 0
-64 -139 0
-64 -158 0
-64 -177 0
-100 -120 0
-100 -139 0
-100 -158 0
-100 -177 0
-120 -139 0
-120 -158 0
-120 -177 0
-139 -158 0
-139 -177 0
-158 -177 0
-12 -29 0
-12 -47 0
-12 -65 0
-12 -101 0
-12 -121 0
-12 -140 0
-12 -159 0
-12 -178 0
-29 -47 0
-29 -65 0
-29 -101 0
-29 -121 0
-29 -140 0
-29 -159 0
-29 -178 0
-47 -65 0
-47 -101 0
-47 -121 0
-47 -140 0
-47 -159 0
-47 -178 0
-65 -101 0
-65 -121 0
-65 -140 0
-65 -159 0
-65 -178 0
-101 -121 0
-101 -140 0
-101 -159 0
-101 -178 0
-121 -140 0
-121 -159 0
-121 -178 0
-140 -159 0
-140 -178 0
-159 -178 0
-13 -30 0
-13 -66 0
-13 -83 0
-13 -102 0
-13 -122 0
-13 -141 0
-13 -160 0
-13 -179 0
-30 -66 0
-30 -83 0
-30 -102 0
-30 -122 0
-30 -141 0
-30 -160 0
-30 -179 0
-66 -83 0
-66 -102 0
-66 -122 0
-66 -141 0
-66 -160 0
-66 -179 0
-83 -102 0
-83 -122 0
-83 -141 0
-83 -160 0
-83 -179 0
-102 -122 0
-102 -141 0
-102 -160 0
-102 -179 0
-122 -141 0
-122 -160 0
-122 -179 0
-141 -160 0
-141 -179 0
-160 -179 0
-31 -48 0
-31 -67 0
-31 -84 0
-31 -103 0
-31 -123 0
-31 -142 0
-31 -161 0
-31 -180 0
-48 -67 0
-48 -84 0
-48 -103 0
-48 -123 0
-48 -142 0
-48 -161 0
-48 -180 0
-67 -84 0
-67 -103 0
-67 -123 0
-67 -142 0
-67 -161 0
-67 -180 0
-84 -103 0
-84 -123 0
-84 -142 0
-84 -161 0
-84 -180 0
-103 -123 0
-103 -142 0
-103 -161 0
-103 -180 0
-123 -142 0
-123 -161 0
-123 -180 0
-142 -161 0
-142 -180 0
-161 -180 0
-14 -32 0
-14 -49 0
-14 -68 0
-14 -85 0
-14 -104 0
-14 -124 0
-14 -143 0
-14 -162 0
-14 -181 0
-32 -49 0
-32 -68 0
-32 -85 0
-32 -104 0
-32 -124 0
-32 -143 0
-32 -162 0
-32 -181 0
-49 -68 0
-49 -85 0
-49 -104 0
-49 -124 0
-49 -143 0
-49 -162 0
-49 -181 0
-68 -85 0
-68 -104 0
-68 -124 0
-68 -143 0
-68 -162 0
-68 -181 0
-85 -104 0
-85 -124 0
-85 -143 0
-85 -162 0
-85 -181 0
-104 -124 0
-104 -143 0
-104 -162 0
-104 -181 0
-124 -143 0
-124 -162 0
-124 -181 0
-143 -162 0
-143 -181 0
-162 -181 0
-15 -33 0
-15 -50 0
-15 -69 0
-15 -86 0
-15 -105 0
-15 -125 0
-15 -144 0
-15 -182 0
-33 -50 0
-33 -69 0
-33 -86 0
-33 -105 0
-33 -125 0
-33 -144 0
-33 -182 0
-50 -69 0
-50 -86 0
-50 -105 0
-50 -125 0
-50 -144 0
-50 -182 0
-69 -86 0
-69 -105 0
-69 -125 0
-69 -144 0
-69 -182 0
-86 -105 0
-86 -125 0
-86 -144 0
-86 -182 0
-105 -125 0
-105 -144 0
-105 -182 0
-125 -144 0
-125 -182 0
-144 -182 0
-16 -34 0
-16 -51 0
-16 -70 0
-16 -106 0
-16 -126 0
-16 -145 0
-16 -163 0
-16 -183 0
-34 -51 0
-34 -70 0
-34 -106 0
-34 -126 0
-34 -145 0
-34 -163 0
-34 -183 0
-51 -70 0
-51 -106 0
-51 -126 0
-51 -145 0
-51 -163 0
-51 -183 0
-70 -106 0
-70 -126 0
-70 -145 0
-70 -163 0
-70 -183 0
-106 -126 0
-106 -145 0
-106 -163 0
-106 -183 0
-126 -145 0
-126 -163 0
-126 -183 0
-145 -163 0
-145 -183 0
-163 -183 0
-17 -35 0
-17 -52 0
-17 -71 0
-17 -87 0
-17 -107 0
-17 -127 0
-17 -146 0
-17 -164 0
-17 -184 0
-35 -52 0
-35 -71 0
-35 -87 0
-35 -107 0
-35 -127 0
-35 -146 0
-35 -164 0
-35 -184 0
-52 -71 0
-52 -87 0
-52 -107 0
-52 -127 0
-52 -146 0
-52 -164 0
-52 -184 0
-71 -87 0
-71 -107 0
-71 -127 0
-71 -146 0
-71 -164 0
-71 -184 0
-87 -107 0
-87 -127 0
-87 -146 0
-87 -164 0
-87 -184 0
-107 -127 0
-107 -146 0
-107 -164 0
-107 -184 0
-127 -146 0
-127 -164 0
-127 -184 0
-146 -164 0
-146 -184 0
-164 -184 0
-18 -53 0
-18 -72 0
-18 -88 0
-18 -108 0
-18 -128 0
-18 -147 0
-18 -165 0
-18 -185 0
-53 -72 0
-53 -88 0
-53 -108 0
-53 -128 0
-53 -147 0
-53 -165 0
-53 -185 0
-72 -88 0
-72 -108 0
-72 -128 0
-72 -147 0
-72 -165 0
-72 -185 0
-88 -108 0
-88 -128 0
-88 -147 0
-88 -165 0
-88 -185 0
-108 -128 0
-108 -147 0
-108 -165 0
-108 -185 0
-128 -147 0
-128 -165 0
-128 -185 0
-147 -165 0
-147 -185 0
-165 -185 0
-19 -36 0
-19 -54 0
-19 -73 0
-19 -89 0
-19 -109 0
-19 -129 0
-19 -148 0
-19 -166 0
-19 -186 0
-36 -54 0
-36 -73 0
-36 -89 0
-36 -109 0
-36 -129 0
-36 -148 0
-36 -166 0
-36 -186 0
-54 -73 0
-54 -89 0
-54 -109 0
-54 -129 0
-54 -148 0
-54 -166 0
-54 -186 0
-73 -89 0
-73 -109 0
-73 -129 0
-73 -148 0
-73 -166 0
-73 -186 0
-89 -109 0
-89 -129 0
-89 -148 0
-89 -166 0
-89 -186 0
-109 -129 0
-109 -148 0
-109 -166 0
-109 -186 0
-129 -148 0
-129 -166 0
-129 -186 0
-148 -166 0
-148 -186 0
-166 -186 0